letting n_nurses=25
letting n_days=7
letting n_shift_types=4
letting max_covers=12
letting t_covers=87
letting covers=[7,5,12,0,6,8,3,0,2,2,5,0,7,7,3,0,0,0,0,0,7,9,4,0,0,0,0,0]
letting prefes=[1,4,2,3,2,1,3,4,1,4,2,3,2,1,2,4,1,4,2,3,1,4,2,3,2,1,3,4,2,1,2,3,1,3,3,4,2,1,2,3,1,3,2,4,2,1,2,3,2,1,2,3,1,3,3,4,2,1,2,3,2,3,3,1,2,1,2,3,2,1,2,3,2,1,2,3,2,1,2,3,2,3,3,1,2,1,2,3,2,3,3,4,2,1,2,3,2,1,2,4,2,1,2,3,2,1,2,3,2,3,3,4,1,1,2,4,2,3,3,1,1,1,2,4,1,3,2,4,1,1,2,4,1,1,2,4,2,3,3,1,2,1,2,4,2,1,3,4,2,1,2,4,2,1,2,4,2,1,2,4,2,1,2,4,2,1,3,4,2,1,2,3,2,3,3,4,2,1,2,3,2,1,2,4,2,1,2,3,2,1,2,3,2,3,3,4,2,1,2,3,2,3,1,4,2,1,2,3,2,1,1,4,2,1,2,3,2,1,2,3,2,3,1,4,2,1,2,3,2,3,3,4,2,1,2,3,2,1,2,3,2,1,2,3,2,1,2,3,2,3,3,4,2,4,1,3,2,3,3,1,2,4,1,3,2,1,2,4,2,4,1,3,2,4,1,3,2,3,3,1,2,1,2,3,2,3,1,4,2,1,2,3,2,1,1,3,2,1,2,3,2,1,2,3,2,3,1,4,2,4,1,3,2,3,3,4,2,4,1,3,2,1,2,4,2,4,1,3,2,4,1,3,2,3,3,4,2,1,1,3,2,1,3,4,2,1,1,3,1,3,2,4,2,1,1,3,2,1,1,3,2,1,3,4,2,1,2,3,2,3,3,4,2,1,2,3,1,3,2,4,2,1,2,3,2,1,2,3,2,3,3,4,1,4,2,3,2,3,3,4,1,4,2,3,2,1,2,4,1,4,2,3,1,4,2,3,2,3,3,4,1,4,2,3,1,3,3,4,1,4,2,3,2,1,2,4,1,4,2,3,1,4,2,3,1,3,3,4,1,1,2,3,1,3,3,4,1,1,2,3,2,1,2,4,1,1,2,3,1,1,2,3,1,3,3,4,2,1,1,4,1,3,3,4,2,1,1,4,2,1,2,4,2,1,1,4,2,1,1,4,1,3,3,4,2,1,2,4,2,3,1,4,2,1,2,4,2,1,1,4,2,1,2,4,2,1,2,4,2,3,1,4,2,1,2,4,2,3,3,1,2,1,2,4,2,1,2,3,2,1,2,4,2,1,2,4,2,3,3,1,2,1,1,3,2,3,3,4,2,1,1,3,2,1,2,4,2,1,1,3,2,1,1,3,2,3,3,4,2,1,2,3,2,1,1,4,2,1,2,3,2,1,2,3,2,1,2,3,2,1,2,3,2,1,1,4,2,1,2,3,2,3,3,4,2,1,2,3,2,1,1,4,2,1,2,3,2,1,2,3,2,3,3,4,2,1,2,3,1,1,3,1,2,1,2,3,2,1,1,4,2,1,2,3,2,1,2,3,1,1,3,1,2,1,2,3,2,3,1,4,2,1,2,3,1,3,2,4,2,1,2,3,2,1,2,3,2,3,1,4]
letting ub =  300
